%mem=4GB
%cpu=0-2
%chk=4th_ExS.chk
#p td test pop=full

4th_ExS

0 1
C          1.38696       -3.75382        2.27627
C          0.13689       -3.86837        1.43147
C         -0.97654       -4.49352        1.99084
C         -2.17060       -4.69858        1.29652
C         -3.28170       -5.44284        2.00449
C         -2.27312       -4.20927       -0.02186
C         -3.52125       -4.50774       -0.86682
C         -3.72124       -5.98504       -1.16728
C         -5.02476       -6.35006       -0.91313
S         -5.30979       -8.02489       -1.26070
C         -3.64163       -8.22271       -1.74990
C         -2.91973       -7.05765       -1.64565
C         -5.79522       -5.23113       -0.40567
C         -7.14060       -5.13339       -0.02811
C         -7.60438       -3.89981        0.40396
C         -6.74480       -2.76817        0.43329
C         -7.54970       -1.64986        0.90187
C         -8.84910       -2.04417        1.16214
C         -9.00162       -3.51713        0.87114
C         -9.67234       -0.99433        1.63478
C         -8.99734        0.21027        1.73658
S         -7.31344        0.03519        1.22982
C         -9.51790        1.50972        2.17877
C         -8.68032        2.48394        2.75661
C         -9.19181        3.71217        3.17560
C        -10.55378        3.99473        3.03805
C        -11.39813        3.03661        2.46787
C        -10.88705        1.81321        2.03647
C         -5.38956       -2.85417        0.04516
C         -4.91803       -4.11163       -0.34655
C         -4.55423       -1.61166        0.01453
C         -4.63004       -0.76492       -1.10018
C         -3.93129        0.45377       -1.15109
C         -3.14004        0.81782       -0.04793
C         -3.05192       -0.02019        1.06382
C         -3.75207       -1.22812        1.09922
C         -4.04870        1.33989       -2.33732
C         -4.12197        0.78963       -3.63814
C         -4.24943        1.59960       -4.76305
C         -4.29781        2.97882       -4.58520
C         -4.44296        4.03077       -5.60899
O         -4.53677        3.88993       -6.81693
C         -4.45820        5.34249       -4.86218
C         -4.59467        6.50465       -5.52374
C         -4.30510        5.03486       -3.42271
C         -4.24383        5.94843       -2.39612
C         -4.06405        5.58871       -1.02291
N         -3.91057        5.34098        0.10440
C         -4.34413        7.36077       -2.60331
N         -4.42574        8.51417       -2.74111
C         -4.21832        3.56165       -3.30181
C         -4.09760        2.73712       -2.17707
C         -1.17471       -3.51829       -0.60344
C         -1.34923       -2.91775       -1.99317
C          0.04773       -3.38235        0.10695
C          1.27859       -2.75143       -0.54906
C          2.53442       -3.59847       -0.66069
C          3.64198       -2.84948       -0.31402
S          5.10981       -3.76088       -0.48910
C          4.20481       -5.15271       -1.03452
C          2.85090       -4.91815       -1.08020
C          3.25695       -1.52153        0.14104
C          4.00890       -0.43466        0.63758
C          3.29506        0.68644        1.06954
C          1.87560        0.73284        0.99928
C          1.13738       -0.34333        0.48777
C          1.83841       -1.46366        0.06519
C          1.47347        2.02375        1.52604
C          2.56778        2.77583        1.90224
C          3.83326        1.99755        1.63425
C          2.22165        4.04444        2.42952
C          0.85502        4.26145        2.45834
S         -0.01562        2.85779        1.81936
C          0.12781        5.44082        2.94268
C          0.71299        6.28811        3.90570
C          0.04290        7.42223        4.36216
C         -1.23384        7.73100        3.88120
C         -1.83111        6.89289        2.93549
C         -1.15822        5.76403        2.46829
C          5.49988       -0.47690        0.69950
C          6.17213       -0.55237        1.93000
C          7.56414       -0.58742        1.98655
C          8.33722       -0.53906        0.81271
C          7.66358       -0.45795       -0.41844
C          6.27093       -0.43236       -0.47288
C          9.82007       -0.57123        0.87315
C         10.48143       -1.37051        1.83470
C         11.87073       -1.40631        1.91603
C         12.60864       -0.64033        1.01833
C         14.07395       -0.50535        0.91481
O         14.92462       -1.05065        1.59817
C         14.32683        0.45971       -0.21833
C         15.58125        0.80754       -0.55347
C         13.01009        0.85384       -0.76735
C         12.78795        1.69248       -1.83471
C         11.48480        2.01066       -2.33391
N         10.44022        2.28551       -2.76902
C         13.84708        2.32343       -2.56124
N         14.68934        2.85025       -3.16870
C         11.98043        0.15856        0.03850
C         10.58291        0.19565       -0.02713
H          1.19106       -4.11620        3.29061
H          1.73859       -2.71987        2.35244
H          2.21301       -4.34444        1.86464
H         -0.90353       -4.86169        3.01249
H         -3.54991       -6.36809        1.48321
H         -2.96927       -5.71067        3.01889
H         -4.19642       -4.84575        2.08332
H         -3.40915       -4.00122       -1.82969
H         -3.29899       -9.19301       -2.08576
H         -1.86580       -6.98799       -1.89407
H         -7.79929       -5.99778       -0.07840
H         -9.75534       -3.71717        0.09674
H         -9.30188       -4.09097        1.75914
H        -10.71271       -1.10844        1.92144
H         -7.62342        2.27183        2.89606
H         -8.52391        4.44628        3.61900
H        -10.95201        4.95065        3.36770
H        -12.45761        3.24759        2.34511
H        -11.54901        1.09253        1.56449
H         -5.28511       -1.04457       -1.92150
H         -2.57820        1.74770       -0.06291
H         -2.43546        0.27238        1.90973
H         -3.68286       -1.87172        1.97115
H         -4.06030       -0.28764       -3.76035
H         -4.30414        1.17804       -5.76267
H         -4.69034        6.46077       -6.60640
H         -4.61699        7.47972       -5.05371
H         -4.06896        3.14878       -1.17690
H         -2.29969       -2.38091       -2.06862
H         -1.33540       -3.67952       -2.78477
H         -0.58109       -2.18583       -2.24163
H          1.02098       -2.49255       -1.58048
H          4.73288       -6.06266       -1.28990
H          2.12633       -5.66497       -1.38803
H          0.05166       -0.31205        0.43900
H          4.42812        1.84413        2.54417
H          4.49404        2.50133        0.91479
H          2.93718        4.79253        2.75454
H          1.69009        6.04383        4.31302
H          0.51463        8.05954        5.10612
H         -1.75702        8.61283        4.24164
H         -2.82108        7.11639        2.54726
H         -1.63654        5.14505        1.71445
H          5.59690       -0.59033        2.85164
H          8.05359       -0.62643        2.95617
H          8.22877       -0.43846       -1.34615
H          5.77381       -0.37783       -1.43779
H          9.89068       -1.98425        2.50826
H         12.38003       -2.02111        2.65267
H         15.83523        1.49528       -1.35017
H         16.39648        0.36822        0.01715
H         10.06980        0.82440       -0.74243


