%mem=4GB
%cpu=0-2
%chk=5th_GS.chk
#p opt test pop=full

5th_GS

0 1
C	  1.05434616 -0.87449690 -0.28336743
C	 -0.22946383 -1.25238995  0.40405936
C	 -0.53366559 -0.65038688  1.66920380
C	  0.44050151  0.17604294  2.53491408
C	  1.09342000 -0.86971321  3.43852786
C	  2.45571310 -0.89148108  3.34530207
S	  3.22575882 -1.95667515  4.36689199
C	  1.71743316 -2.32373162  5.13642991
C	  0.64818433 -1.75889843  4.45263979
C	  1.68362753 -3.15297971  6.33996836
C	  2.40921714 -2.87301476  7.50211161
C	  2.47962134 -3.87941683  8.48826130
C	  1.74616372 -5.05531799  8.45338173
C	  0.92609116 -5.26724269  7.35477962
C	  0.91663905 -4.33985322  6.30048603
C	  3.53381834 -3.57552142  9.46918211
O	  3.83916416 -4.24723273  10.43174903
C	  4.16629300 -2.30611011  8.99186737
C	  5.37217615 -1.95403363  9.45212241
C	  3.27984558 -1.73901528  7.96184635
C	  3.12110828 -0.41017963  7.72858214
C	  3.99367538  0.56643013  8.29600781
N	  4.72496563  1.35577142  8.73393150
C	  2.03228215  0.15056194  6.99719990
N	  1.15780906  0.67054880  6.43485812
C	  2.91522380  0.11630790  2.44877146
C	  4.20447233  0.42316255  2.07355127
C	  4.33797296  1.52475796  1.25148816
C	  3.20632433  2.33083201  0.87639621
C	  3.78972799  3.38545259  0.07741193
C	  5.14384942  3.20038897 -0.06303860
C	  5.67002563  2.02573853  0.69379271
C	  5.72882141  4.15455342 -0.92570813
C	  4.77178466  5.03324760 -1.41774484
S	  3.23096855  4.76714912 -0.67384268
C	  4.95021207  6.09789230 -2.41113544
C	  5.59854108  5.88501723 -3.63366124
C	  6.03170007  7.01332945 -4.36015946
C	  5.70999561  8.31832236 -4.02587166
C	  4.95409559  8.51726799 -2.87880485
C	  4.60410159  7.42419700 -2.06882551
C	  6.99122861  6.62029201 -5.40685493
O	  7.54992128  7.35709572 -6.19011434
C	  7.16016890  5.13982260 -5.25659390
C	  8.20092218  4.52178230 -5.82662571
C	  6.08828644  4.67272678 -4.36416330
C	  5.48290139  3.46127538 -4.45139656
C	  6.00550368  2.40608132 -5.25681855
N	  6.42203683  1.53033635 -5.89492395
C	  4.21011675  3.16856582 -3.88040556
N	  3.15589138  2.87112043 -3.49809154
C	  1.88723761  2.03217616  1.27360661
C	  1.74731428  0.84281602  2.01830718
C	  0.73426615  2.87178815  0.91296794
C	 -0.12676401  3.49918671  1.82617676
C	 -1.31030047  4.08759365  1.31975514
C	 -1.60140871  4.23632226 -0.02654993
C	 -0.69268637  3.71953246 -0.93015013
C	  0.42040198  3.00624794 -0.46536424
C	 -2.25891999  4.38616473  2.40064885
O	 -3.37035219  4.85350965  2.27394634
C	 -1.59469135  3.92034692  3.65282934
C	 -2.32602400  3.73942564  4.75914651
C	 -0.18479682  3.63763431  3.32565399
C	  0.83952709  3.75732537  4.20822137
C	  0.62592137  4.00419847  5.59808566
N	  0.46717660  4.20787864  6.73103646
C	  2.21355680  3.78884738  3.83842727
N	  3.34959318  3.86758398  3.61948688
C	 -1.79555789 -0.95744702  2.26782431
C	 -2.34672973 -0.09878708  3.39079282
C	 -2.51576896 -2.10263700  1.85642784
C	 -2.16567459 -2.74163900  0.64205774
C	 -2.93745740 -3.97748309  0.21250738
C	 -1.12895625 -2.20793938 -0.18204287
C	 -1.10896215 -2.66747437 -1.64710300
C	  0.11368456 -3.50213896 -1.92257951
C	  0.81913216 -3.05988808 -3.01365105
S	  2.18655991 -3.93724073 -3.36744594
C	  1.87345123 -5.00486516 -2.03346187
C	  0.73196572 -4.63065542 -1.33275275
C	  2.82921637 -6.07130970 -1.73023147
C	  3.23734648 -7.04994509 -2.64145821
C	  4.38448194 -7.80551074 -2.31971334
C	  5.03890441 -7.74855929 -1.09814220
C	  4.54914674 -6.86260008 -0.14966914
C	  3.47311417 -6.02067098 -0.47011977
C	  4.87078440 -8.54280482 -3.49616786
O	  5.83702957 -9.27560994 -3.53871265
C	  3.95592490 -8.15793270 -4.61551088
C	  4.31520388 -8.40359927 -5.88038725
C	  2.80493187 -7.45957892 -4.01793650
C	  1.54466854 -7.46724040 -4.52066606
C	  1.24678187 -7.97157912 -5.82161763
N	  0.99384579 -8.37295062 -6.88110513
C	  0.39050826 -7.10982952 -3.76376153
N	 -0.58427115 -6.87662407 -3.17743671
C	  0.24731000 -1.85344677 -3.53917627
C	  0.71702658 -0.98165903 -4.50007918
C	 -0.01297725  0.18732930 -4.65935161
C	 -1.21858858  0.43332100 -3.91399851
C	 -1.65861833  1.72954301 -4.36195743
C	 -0.78273627  2.25135134 -5.27611545
C	  0.34810928  1.32875513 -5.61621472
C	 -1.14978298  3.56181701 -5.66338055
C	 -2.31915835  3.98756464 -5.03120663
S	 -2.96546859  2.70769401 -4.04429157
C	 -2.99913287  5.30107403 -5.12123293
C	 -3.99683996  5.70446589 -4.20440466
C	 -4.62238757  6.96562265 -4.26726741
C	 -4.25330043  7.86521534 -5.25474452
C	 -3.26333082  7.45328403 -6.15836192
C	 -2.63869659  6.21097310 -6.12063226
C	 -2.97375831  8.51128383 -7.12982320
O	 -2.15184001  8.45354811 -8.02211119
C	 -3.88046225  9.65153154 -6.78168373
C	 -3.82273138  10.75493385 -7.53881880
C	 -4.68150428  9.25961111 -5.60315067
C	 -5.61153667  10.00400260 -4.95651350
C	 -6.33102702  9.53674833 -3.82011380
N	 -6.92262176  9.17060167 -2.89170124
C	 -5.95436071  11.33033148 -5.34908026
N	 -6.24800078  12.41115590 -5.65274934
C	 -1.73588716 -0.47362205 -2.98399381
C	 -0.92272227 -1.59349958 -2.74801028
C	 -2.98619170 -0.26215967 -2.24703523
C	 -4.14733053 -1.03254290 -2.40304955
C	 -5.16851283 -0.88027488 -1.43657346
C	 -5.17044504  0.08006719 -0.43700554
C	 -4.06037769  0.90079593 -0.34075774
C	 -2.97881521  0.70447748 -1.20978625
C	 -6.13553933 -1.98520506 -1.51430981
O	 -7.09653413 -2.15763659 -0.79749486
C	 -5.63115677 -2.88244165 -2.59496365
C	 -6.10043104 -4.13388485 -2.68024476
C	 -4.57185185 -2.15189728 -3.31497271
C	 -4.29226895 -2.33024418 -4.62975944
C	 -4.86013563 -3.39589614 -5.39193893
N	 -5.29858474 -4.27048560 -6.01787946
C	 -3.52922721 -1.43113990 -5.42363883
N	 -2.96175597 -0.74823541 -6.16815297
C	 -3.52933790 -2.69289832  2.75667462
C	 -3.10134753 -3.57353794  3.77765378
C	 -4.00143101 -4.19594616  4.65697269
C	 -5.35827137 -3.93866387  4.53677312
C	 -5.76481372 -3.04458624  3.53089281
C	 -4.89464819 -2.42758752  2.63687555
C	 -7.21890964 -2.85862903  3.56812398
O	 -7.85873111 -2.09255776  2.87816185
C	 -7.72906716 -3.77226090  4.64218226
C	 -9.05237230 -3.85206037  4.82748230
C	 -6.56746375 -4.42952335  5.27472364
C	 -6.58022146 -5.29753423  6.31735053
C	 -5.39942830 -5.87435826  6.86665611
N	 -4.43746713 -6.34423556  7.31640271
C	 -7.77882207 -5.71721203  6.96476219
N	 -8.73932711 -6.08087362  7.50644569
H	  1.03818716  0.17799314 -0.56839190
H	  1.27369756 -1.41388117 -1.18836067
H	  1.91012061 -1.11546327  0.34754265
H	 -0.06510279  0.90443124  3.16854387
H	 -0.37901259 -1.89755912  4.76260272
H	  1.83574067 -5.79438462  9.24487033
H	  0.33205701 -6.17660983  7.28399489
H	  0.32583973 -4.57457701  5.41613546
H	  5.92722589 -1.09442281  9.09736349
H	  5.86828152 -2.55790269  10.21149968
H	  5.05908141 -0.15304767  2.40335257
H	  6.12429828  1.28373465  0.03163365
H	  6.34667448  2.33070762  1.49700060
H	  6.77719885  4.18558027 -1.19694552
H	  6.06957170  9.15363540 -4.62100579
H	  4.68494309  9.52611522 -2.57040841
H	  4.09542189  7.62922155 -1.12720172
H	  8.42192226  3.46769796 -5.70275553
H	  8.90448432  5.08194200 -6.44166727
H	 -2.52026568  4.71328352 -0.35459735
H	 -0.85926581  3.81356958 -2.00011909
H	  1.06596265  2.54303805 -1.21560316
H	 -1.93603550  3.32768127  5.68203541
H	 -3.38582494  3.98989665  4.76505006
H	 -1.88407985 -0.33124485  4.35098765
H	 -2.19283191  0.95848705  3.15462013
H	 -3.43193488 -0.19609111  3.49533280
H	 -2.31559002 -4.65649261 -0.37835020
H	 -3.81667632 -3.68909137 -0.36612572
H	 -3.26112806 -4.58229999  1.06426018
H	 -1.99819802 -3.23203825 -1.93792246
H	  0.36735260 -5.15045309 -0.45458750
H	  5.92037454 -8.35469195 -0.90729676
H	  5.03548538 -6.77526456  0.82012167
H	  3.16964663 -5.27290259  0.26417382
H	  3.74273927 -8.09227202 -6.74578379
H	  5.24783652 -8.92204470 -6.09694985
H	  1.62539715 -1.16960575 -5.05995267
H	  0.30093520  0.99863280 -6.65708442
H	  1.31895260  1.76182479 -5.36633786
H	 -0.57635688  4.16976235 -6.35091585
H	 -4.31126105  5.03993549 -3.40041899
H	 -5.37626312  7.17795070 -3.51751353
H	 -1.88588287  5.98077756 -6.86982048
H	 -3.13000514  10.80932102 -8.37821341
H	 -4.42579305  11.64066650 -7.39383224
H	 -5.99268315  0.15118438  0.27060398
H	 -4.00196778  1.65806593  0.43876840
H	 -2.08321186  1.30132224 -1.05068703
H	 -6.88642988 -4.47398607 -2.00720748
H	 -5.73446208 -4.87374005 -3.38086638
H	 -2.03820132 -3.79257729  3.87906013
H	 -3.58165739 -4.86222243  5.40014292
H	 -5.28159117 -1.75983799  1.87400147
H	 -9.54272024 -4.48233892  5.55602217
H	 -9.72868103 -3.25756599  4.21296307


