%mem=4GB
%cpu=0-2
%chk=5th_ExS.chk
#p td test pop=full

5th_ExS

0 1


