--Link1--
# Opt=(Tight,GDIIS) B3LYP/6-31G(d) SCRF

CCCCCCCCC1(CCCCCCCC)C2=C(C=CC(=C2)C2=CC=C(\C=C3/SC(=S)N(CC)C3=O)C3=NSN=C23)C2=C1C=C(C=C2)C1=CC=C(\C=C2/SC(=S)N(CC)C2=O)C2=NSN=C12

  0  1
S,12.158800000000003,-5.1442825870646764,0.0
S,26.496480000000005,2.204410746268657,0.0
S,10.280933333333337,1.99422407960199,0.0
S,29.78162666666667,-4.063109253731344,0.0
S,30.848613333333336,-6.708175920398011,0.0
S,9.56282666666667,4.598970746268657,0.0
O,33.35293333333334,-2.208949253731344,0.0
O,6.709626666666669,0.14006407960198985,0.0
N,13.577840000000002,-4.546015920398011,0.0
N,25.280533333333338,1.2593174129353235,0.0
N,11.15136,-3.9796692537313443,0.0
N,27.771040000000006,1.3401440796019901,0.0
N,7.828133333333334,2.432890746268657,0.0
N,32.23442666666667,-4.5017759203980106,0.0
C,19.62266666666667,-0.19425592039801032,0.0
C,20.940720000000002,-0.990762587064677,0.0
C,18.461973333333336,-1.1983359203980104,0.0
C,20.590720000000005,-2.490442587064677,0.0
C,19.056133333333335,-2.6209225870646775,0.0
C,22.414453333333338,-0.5440692537313434,0.0
C,16.929813333333335,-1.0103625870646766,0.0
C,20.72698666666667,0.87142407960199,0.0
C,19.09682666666667,1.2475574129353233,0.0
C,23.538186666666668,-1.5970559203980104,0.0
C,16.00002666666667,-2.238069253731344,0.0
C,21.71426666666667,-3.5434292537313445,0.0
C,18.12634666666667,-3.848442587064677,0.0
C,14.500346666666669,-1.8878825870646767,0.0
C,25.077440000000003,-1.5470292537313437,0.0
C,23.18818666666667,-3.0967359203980105,0.0
C,16.598293333333338,-3.657109253731344,0.0
C,13.447360000000003,-3.0116159203980106,0.0
C,25.803760000000004,-0.18921592039801016,0.0
C,20.35626666666667,2.3604640796019902,0.0
C,17.58538666666667,1.5129974129353234,0.0
C,11.947680000000002,-2.661429253731344,0.0
C,27.34301333333334,-0.1391892537313435,0.0
C,14.053653333333337,-0.4141492537313436,0.0
C,25.890373333333336,-2.855002587064677,0.0
C,11.50098666666667,-1.18769592039801,0.0
C,28.155760000000004,-1.447162587064677,0.0
C,12.553973333333335,-0.06396258706467695,0.0
C,27.429440000000003,-2.8051625870646775,0.0
C,21.479440000000004,3.406357412935324,0.0
C,17.059733333333337,2.954810746268657,0.0
C,10.001306666666668,-0.8376959203980099,0.0
C,29.695013333333335,-1.3971359203980103,0.0
C,9.554613333333336,0.63622407960199,0.0
C,30.507946666666673,-2.705109253731344,0.0
C,8.038693333333335,0.90726407960199,0.0
C,32.02386666666667,-2.9763359203980104,0.0
C,21.135413333333336,4.901930746268658,0.0
C,15.54810666666667,3.2204374129353237,0.0
C,9.213946666666669,3.1045174129353237,0.0
C,30.848613333333336,-5.173589253731345,0.0
C,33.56349333333334,-5.269162587064677,0.0
C,6.499066666666668,3.200090746268657,0.0
C,22.25858666666667,5.9476374129353236,0.0
C,15.022453333333335,4.662250746268658,0.0
C,21.914373333333337,7.443210746268656,0.0
C,13.511013333333336,4.927877412935324,0.0
C,34.89256,-4.5017759203980106,0.0
C,5.170000000000002,2.432890746268657,0.0
C,22.999653333333338,8.528490746268657,0.0
C,12.985173333333336,6.369690746268658,0.0
C,22.60242666666667,10.010810746268659,0.0
C,11.473733333333335,6.635317412935324,0.0

